data/MCDM/NO_CORR/GEN_FROM_60/10_ITEMS_1000_GEN/K5011W01.KNP.mps
NAME          BLANK   
ROWS
 N  OBJROW
 L  R0000000
COLUMNS
    C0000000  OBJROW     -236.         R0000000  792.        
    C0000001  OBJROW     -495.         R0000000  323.        
    C0000002  OBJROW     -178.         R0000000  774.        
    C0000003  OBJROW     -114.         R0000000  541.        
    C0000004  OBJROW     -164.         R0000000  859.        
    C0000005  OBJROW     -629.         R0000000  512.        
    C0000006  OBJROW     -939.         R0000000  849.        
    C0000007  OBJROW     -913.         R0000000  162.        
    C0000008  OBJROW     -740.         R0000000  602.        
    C0000009  OBJROW     -396.         R0000000  60.         
    C0000010  OBJROW     -315.         R0000000  558.        
RHS
    RHS       R0000000  14156.      
BOUNDS
 BV BOUND     C0000000  1.          
 BV BOUND     C0000001  1.          
 BV BOUND     C0000002  1.          
 BV BOUND     C0000003  1.          
 BV BOUND     C0000004  1.          
 BV BOUND     C0000005  1.          
 BV BOUND     C0000006  1.          
 BV BOUND     C0000007  1.          
 BV BOUND     C0000008  1.          
 BV BOUND     C0000009  1.          
 BV BOUND     C0000010  1.          
ENDATA
