data/MCDM/NO_CORR/GEN_FROM_60/10_ITEMS_1000_GEN/K5011W01.KNP.txt
N 11
M 12
LC 11
LC 12
LC 13
LC 14
LC 15
LC 16
LC 17
LC 18
LC 19
LC 20
LC 21
LR 1
LR 2
LR 3
LR 4
LR 5
LR 6
LR 7
LR 8
LR 9
LR 10
LR 11
LR 12
LO -236
LO -495
LO -178
LO -114
LO -164
LO -629
LO -939
LO -913
LO -740
LO -396
LO -315
OS 1
IC 961
IC 802
IC 545
IC 578
IC 700
IC 215
IC 357
IC 606
IC 177
IC 303
IC 373
IB 2809
